certificates/rado_a11_c196_N24.cnf
c Rad2 upper bound instance: x1 + 11*x2 - x3 = 196, interval [1,24]
p cnf 24 104
1 3 18 0
-1 -3 -18 0
1 14 19 0
-1 -14 -19 0
2 4 18 0
-2 -4 -18 0
2 15 19 0
-2 -15 -19 0
3 5 18 0
-3 -5 -18 0
3 16 19 0
-3 -16 -19 0
4 6 18 0
-4 -6 -18 0
4 17 19 0
-4 -17 -19 0
5 7 18 0
-5 -7 -18 0
5 18 19 0
-5 -18 -19 0
6 8 18 0
-6 -8 -18 0
6 19 0
-6 -19 0
7 9 18 0
-7 -9 -18 0
7 19 20 0
-7 -19 -20 0
8 10 18 0
-8 -10 -18 0
8 19 21 0
-8 -19 -21 0
9 11 18 0
-9 -11 -18 0
9 19 22 0
-9 -19 -22 0
1 10 17 0
-1 -10 -17 0
10 12 18 0
-10 -12 -18 0
10 19 23 0
-10 -19 -23 0
2 11 17 0
-2 -11 -17 0
11 13 18 0
-11 -13 -18 0
11 19 24 0
-11 -19 -24 0
3 12 17 0
-3 -12 -17 0
12 14 18 0
-12 -14 -18 0
4 13 17 0
-4 -13 -17 0
13 15 18 0
-13 -15 -18 0
5 14 17 0
-5 -14 -17 0
14 16 18 0
-14 -16 -18 0
6 15 17 0
-6 -15 -17 0
15 17 18 0
-15 -17 -18 0
7 16 17 0
-7 -16 -17 0
16 18 0
-16 -18 0
8 17 0
-8 -17 0
17 18 19 0
-17 -18 -19 0
9 17 18 0
-9 -17 -18 0
18 20 0
-18 -20 0
10 17 19 0
-10 -17 -19 0
18 19 21 0
-18 -19 -21 0
11 17 20 0
-11 -17 -20 0
18 20 22 0
-18 -20 -22 0
1 16 21 0
-1 -16 -21 0
12 17 21 0
-12 -17 -21 0
18 21 23 0
-18 -21 -23 0
2 16 22 0
-2 -16 -22 0
13 17 22 0
-13 -17 -22 0
18 22 24 0
-18 -22 -24 0
3 16 23 0
-3 -16 -23 0
14 17 23 0
-14 -17 -23 0
4 16 24 0
-4 -16 -24 0
15 17 24 0
-15 -17 -24 0
