certificates/rado_a11_c196_N24.drat
-22 -24 0
d -22 -18 -24 0
18 -23 -24 0
-23 -24 0
d 18 -23 -24 0
-18 -24 0
-24 0
19 18 0
18 0
-16 0
-20 0
4 0
-2 0
-6 0
22 0
19 0
-9 0
-21 0
-5 0
-17 0
1 0
8 0
11 0
12 0
15 0
7 0
14 0
-3 0
0
